(set-info :origin "NTS benchmark converted to SMT-LIB2 using Eldarica (http://lara.epfl.ch/w/eldarica)")
(set-logic HORN)
(declare-fun p (Real Real) Bool)
(assert(forall((A Real)(B Real))(=>(and (and (= A 0.0) true) true) (p A B))))
(assert(forall((A Real)(B Real)(C Real)(D Real)(E Real)(F Real)(G Real)(H Real)(I Real)(J Real)(K Real)(L Real)(M Real)(N Real)(O Real)(P Real)(Q Real)(R Real)(S Real))(=>(and (or (or (or (or (or (or (and (and (and (and (= A 1.0) (= C 0.0)) (= D B)) true) (and (and (and (and (and (and (and (and (not (not (>= (+ E 0.0) 0.0))) (not (not (<= E 1.0)))) (not (not (>= (+ F 0.0) 0.0)))) (not (not (<= F 1.0)))) (not (not (>= (+ D 0.0) 0.0)))) (not (not (<= D 0.0)))) (not (= F 0.0))) (not (not (= E 0.0)))) (not (and (or (not (= F 0.0)) (not (= (+ G 0.0) 0.0))) (or (= F 0.0) (= (+ G 0.0) 0.0)))))) (and (and (and (and (= A 1.0) (= C 1.0)) (= D B)) (= G H)) (and (and (and (and (and (and (and (and (and (not (not (>= (+ E 0.0) 0.0))) (not (not (<= E 1.0)))) (not (not (>= (+ I 0.0) 0.0)))) (not (not (<= I 1.0)))) (not (and (or (not (= I 0.0)) (not (= (+ J 0.0) 0.0))) (or (= I 0.0) (= (+ J 0.0) 0.0))))) (not (not (>= D F)))) (not (not (>= F D)))) (not (= I 0.0))) (not (not (= E 0.0)))) (not (not (= F (+ 1.0 G))))))) (and (and (and (and (= A 2.0) (= C 0.0)) true) true) (and (and (and (and (and (and (and (and (and (and (and (and (and (and (and (and (and (and (and (not (not (>= (+ I 0.0) 0.0))) (not (not (<= I 1.0)))) (not (not (>= (+ K 0.0) 0.0)))) (not (not (<= K 1.0)))) (not (not (>= (+ E 0.0) 0.0)))) (not (not (<= E 1.0)))) (not (not (>= (+ J 0.0) 0.0)))) (not (not (<= J 1.0)))) (not (not (>= (+ D 0.0) 0.0)))) (not (not (<= D 1.0)))) (not (not (>= (+ L 0.0) 0.0)))) (not (not (<= L 1.0)))) (not (and (or (not (= L 0.0)) (not (= G M))) (or (= L 0.0) (not (= (+ G 0.0) 0.0)))))) (not (and (or (not (= L 0.0)) (<= M 0.0)) (or (= L 0.0) (not (<= M 0.0)))))) (not (and (or (not (= K 0.0)) (not (= (+ N 0.0) 0.0))) (or (= K 0.0) (= (+ N 0.0) 0.0))))) (not (not (= D 0.0)))) (not (not (= E 0.0)))) (not (and (= E 0.0) (not (= J 0.0))))) (not (and (= E 0.0) (or (or (or (or (or (or (not (= I 0.0)) (not (= J 0.0))) (not (= K 0.0))) (not (<= M 10.0))) (not (>= (+ M (- 10.0)) 0.0))) (not (<= F 10.0))) (not (>= (+ F (- 10.0)) 0.0)))))) (not (and (or (not (= D 0.0)) (not (= F G))) (or (= D 0.0) (= F G))))))) (and (and (and (and (= A 2.0) (= C 1.0)) true) (= O H)) (and (and (and (and (and (and (and (and (and (and (and (and (and (and (and (and (and (and (and (and (and (and (and (and (and (and (and (not (not (>= (+ I 0.0) 0.0))) (not (not (<= I 1.0)))) (not (not (>= (+ K 0.0) 0.0)))) (not (not (<= K 1.0)))) (not (not (>= (+ M 0.0) 0.0)))) (not (not (<= M 1.0)))) (not (not (>= (+ D 0.0) 0.0)))) (not (not (<= D 1.0)))) (not (not (>= (+ P 0.0) 0.0)))) (not (not (<= P 1.0)))) (not (not (>= (+ E 0.0) 0.0)))) (not (not (<= E 1.0)))) (not (not (>= (+ J 0.0) 0.0)))) (not (not (<= J 1.0)))) (not (not (>= (+ N 0.0) 0.0)))) (not (not (<= N 1.0)))) (not (and (or (not (= P 0.0)) (not (= G Q))) (or (= P 0.0) (not (= (+ G 0.0) 0.0)))))) (not (and (or (not (= P 0.0)) (<= Q 0.0)) (or (= P 0.0) (not (<= Q 0.0)))))) (not (not (= L (+ 11.0 O))))) (not (not (= R (+ 1.0 O))))) (not (and (or (not (= K 0.0)) (not (= (+ S 0.0) 0.0))) (or (= K 0.0) (= (+ S 0.0) 0.0))))) (not (not (= D 0.0)))) (not (not (= M 0.0)))) (not (and (= M 0.0) (not (= N 0.0))))) (not (and (= M 0.0) (or (or (or (or (or (not (= E 0.0)) (not (= N 0.0))) (not (>= L Q))) (not (>= Q L))) (not (>= L F))) (not (>= F L)))))) (not (and (= E 0.0) (not (= J 0.0))))) (not (and (= E 0.0) (or (or (not (= I 0.0)) (not (= J 0.0))) (not (= K 0.0)))))) (not (and (or (not (= D 0.0)) (not (= F G))) (or (= D 0.0) (= F G))))))) (and (and (and (and (= A 2.0) (= C 2.0)) true) true) (and (and (not (not (>= (+ D 0.0) 0.0))) (not (not (<= D 1.0)))) (not (not (= D 0.0)))))) (and (and (and (and (= A 3.0) (= C 0.0)) true) true) (and (and (and (and (and (and (and (and (and (and (and (and (and (and (and (and (and (and (and (not (not (>= (+ I 0.0) 0.0))) (not (not (<= I 1.0)))) (not (not (>= (+ K 0.0) 0.0)))) (not (not (<= K 1.0)))) (not (not (>= (+ E 0.0) 0.0)))) (not (not (<= E 1.0)))) (not (not (>= (+ J 0.0) 0.0)))) (not (not (<= J 1.0)))) (not (not (>= (+ D 0.0) 0.0)))) (not (not (<= D 1.0)))) (not (not (>= (+ L 0.0) 0.0)))) (not (not (<= L 1.0)))) (not (and (or (not (= L 0.0)) (not (= G M))) (or (= L 0.0) (not (= (+ G 0.0) 0.0)))))) (not (and (or (not (= L 0.0)) (<= M 0.0)) (or (= L 0.0) (not (<= M 0.0)))))) (not (and (or (not (= K 0.0)) (not (= (+ N 0.0) 0.0))) (or (= K 0.0) (= (+ N 0.0) 0.0))))) (not (= D 0.0))) (not (not (= E 0.0)))) (not (and (= E 0.0) (not (= J 0.0))))) (not (and (= E 0.0) (or (or (or (or (or (or (not (= I 0.0)) (not (= J 0.0))) (not (= K 0.0))) (not (<= M 10.0))) (not (>= (+ M (- 10.0)) 0.0))) (not (<= F 10.0))) (not (>= (+ F (- 10.0)) 0.0)))))) (not (and (or (not (= D 0.0)) (not (= F G))) (or (= D 0.0) (= F G))))))) (and (and (and (and (= A 3.0) (= C 1.0)) true) (= O H)) (and (and (and (and (and (and (and (and (and (and (and (and (and (and (and (and (and (and (and (and (and (and (and (and (and (and (and (not (not (>= (+ I 0.0) 0.0))) (not (not (<= I 1.0)))) (not (not (>= (+ K 0.0) 0.0)))) (not (not (<= K 1.0)))) (not (not (>= (+ M 0.0) 0.0)))) (not (not (<= M 1.0)))) (not (not (>= (+ D 0.0) 0.0)))) (not (not (<= D 1.0)))) (not (not (>= (+ P 0.0) 0.0)))) (not (not (<= P 1.0)))) (not (not (>= (+ E 0.0) 0.0)))) (not (not (<= E 1.0)))) (not (not (>= (+ J 0.0) 0.0)))) (not (not (<= J 1.0)))) (not (not (>= (+ N 0.0) 0.0)))) (not (not (<= N 1.0)))) (not (and (or (not (= P 0.0)) (not (= G Q))) (or (= P 0.0) (not (= (+ G 0.0) 0.0)))))) (not (and (or (not (= P 0.0)) (<= Q 0.0)) (or (= P 0.0) (not (<= Q 0.0)))))) (not (not (= L (+ 11.0 O))))) (not (not (= R (+ 1.0 O))))) (not (and (or (not (= K 0.0)) (not (= (+ S 0.0) 0.0))) (or (= K 0.0) (= (+ S 0.0) 0.0))))) (not (= D 0.0))) (not (not (= M 0.0)))) (not (and (= M 0.0) (not (= N 0.0))))) (not (and (= M 0.0) (or (or (or (or (or (not (= E 0.0)) (not (= N 0.0))) (not (>= L Q))) (not (>= Q L))) (not (>= L F))) (not (>= F L)))))) (not (and (= E 0.0) (not (= J 0.0))))) (not (and (= E 0.0) (or (or (not (= I 0.0)) (not (= J 0.0))) (not (= K 0.0)))))) (not (and (or (not (= D 0.0)) (not (= F G))) (or (= D 0.0) (= F G))))))) (p C H)) (p A B))))
(assert(not (exists((A Real)(B Real))(and (and (and (= A 3.0) true) true) (p A B)))))
(check-sat)
